10	5
0	5	3	8	1	4	2
1	1	9
2	1	5
3	1	10
4	1	11
5	1	6
6	1	7
7	1	11
8	1	11
9	1	11
10	1	11
11	0
0	0	0	0	0	0	0
1	1	3	5	1	4	0
2	7	5	0	3	1	4
3	3	0	0	1	4	0
4	9	3	5	0	0	0
5	6	4	0	0	1	3
6	3	2	0	0	1	0
7	5	1	0	4	0	1
8	5	0	0	0	5	0
9	10	2	0	3	0	0
10	6	0	0	0	5	2
11	0	0	0	0	0	0
5	5	5	5	5
